sat
(:max-memory         18.43
 :memory             18.33
 :nlsat-arith-var    3
 :nlsat-atoms        17
 :nlsat-bool-var     1
 :nlsat-clauses      5
 :nlsat-conflicts    4
 :nlsat-decisions    6
 :nlsat-propagations 10
 :nlsat-stages       8
 :num-allocs         51373
 :rlimit-count       2551
 :time               0.01
 :total-time         0.01)
